(set-logic QF_S)
(declare-fun var_0xINPUT_155853 () String)
(assert (and (not (= var_0xINPUT_155853 "cm6AfB9De3")) (= (len var_0xINPUT_155853) 0) (not (= var_0xINPUT_155853 "Example:")) (= (len var_0xINPUT_155853) 0) (not (= var_0xINPUT_155853 "Example:")) (not (= var_0xINPUT_155853 "cm6AfB9De3"))))
(check-sat var_0xINPUT_155853)